instances/shortest_path/discrete_knapsack_uncertainty/nohadani_5_19.kp
32367
85

[1.9178712899313144 1.2834093071230446 0.9077341452383713 0.5284605838741997 4.630283880076427 3.9830718608628666 3.954967880666374 1.6990475119677906 5.085628984232598 0.7384247714084575 3.3072499631313397 3.3182015172460875 1.3370297505013593 0.7186310189175885 3.3046335058996124 4.173137126215892]

[52 29 47 68 45 58 22 20 22 11 24 28 41 21 85 13]
